#n hf/sto-3g opt

Input Generated by IOData

-1 2
H     0.000000   0.000000   0.000000
Cl    1.000000   0.000000   0.000000


