! HF STO-3G Opt
# Input Generated by IOData
*xyz -1 2
H     0.000000   0.000000   0.000000
Cl    1.000000   0.000000   0.000000
*
