%chk=water.chk
#n hf/sto-3g sp

water

0 1
H     0.783837  -0.492236  -0.000000
O    -0.000000   0.062020  -0.000000
H    -0.783837  -0.492236  -0.000000


