%chk=water.chk
#n hf/sto-3g sp

water

0 1
O1
H2  1  r2
H3  1  r3  2  a3

r2=0.9732       
r3=0.9641   
a3=105.9    


