Cubic BN
   3.57
 0.0 0.5 0.5
 0.5 0.0 0.5
 0.5 0.5 0.0
   B N
   1 1
Selective dynamics
Cartesian
 0.00 0.00 0.00 T T F
 0.25 0.25 0.25 F F F
Cartesian
 0.01 0.01 0.01
 0.00 0.00 0.00
