Cubic BN
   3.57
 0.0 0.5 0.5
 0.5 0.0 0.5
 0.5 0.5 0.0
   B N
   1 1
Direct
 0.00 0.00 0.00
 0.25 0.25 0.25
