Water molecule in a box
  0.5291772082999999
    15.000000    0.000000    0.000000
     0.000000   15.000000    0.000000
     0.000000    0.000000   15.000000
   O    H
     1     2
Selective Dynamics 
Direct
  0.000000  0.000000  0.000000 T T T
  0.074983  0.903122  0.000000 T T T
  0.074983  0.096878  0.000000 T T T

bli bla blo
